Set parameter TokenServer to value "hpc-licenses.hpcc.usc.edu"
Set parameter TimeLimit to value 3600
Gurobi Optimizer version 9.5.1 build v9.5.1rc2 (linux64)
Thread count: 20 physical cores, 20 logical processors, using up to 20 threads
Optimize a model with 6007 rows, 4529 columns and 24534 nonzeros
Model fingerprint: 0xdd22bca2
Variable types: 4506 continuous, 23 integer (23 binary)
Coefficient statistics:
  Matrix range     [1e+00, 1e+00]
  Objective range  [9e-05, 4e+00]
  Bounds range     [1e+00, 1e+00]
  RHS range        [1e+00, 1e+02]
Presolve removed 1520 rows and 1515 columns
Presolve time: 0.06s
Presolved: 4487 rows, 3014 columns, 21975 nonzeros
Variable types: 2994 continuous, 20 integer (20 binary)
Found heuristic solution: objective 263.3127767
Found heuristic solution: objective 263.9075210

Root relaxation: objective 2.753928e+02, 2919 iterations, 0.11 seconds (0.13 work units)

    Nodes    |    Current Node    |     Objective Bounds      |     Work
 Expl Unexpl |  Obj  Depth IntInf | Incumbent    BestBd   Gap | It/Node Time

     0     0  275.39282    0    2  263.90752  275.39282  4.35%     -    0s
     0     0  275.36475    0    2  263.90752  275.36475  4.34%     -    0s
     0     0  275.32504    0    2  263.90752  275.32504  4.33%     -    0s
H    0     0                     265.7794774  275.32504  3.59%     -    0s
     0     0  275.17943    0    2  265.77948  275.17943  3.54%     -    0s
     0     0  274.80988    0    5  265.77948  274.80988  3.40%     -    0s
     0     0  274.51935    0    5  265.77948  274.51935  3.29%     -    0s
     0     0  274.50898    0    5  265.77948  274.50898  3.28%     -    0s
     0     0  274.49936    0    5  265.77948  274.49936  3.28%     -    0s
     0     0  274.48214    0    5  265.77948  274.48214  3.27%     -    0s
     0     0  274.46679    0    5  265.77948  274.46679  3.27%     -    0s
     0     0  274.40036    0    5  265.77948  274.40036  3.24%     -    0s
     0     0  274.37465    0    5  265.77948  274.37465  3.23%     -    0s
     0     0  274.16100    0    5  265.77948  274.16100  3.15%     -    0s
     0     0  274.16100    0    5  265.77948  274.16100  3.15%     -    0s
     0     0  274.16100    0    5  265.77948  274.16100  3.15%     -    0s
     0     0  274.16100    0    5  265.77948  274.16100  3.15%     -    0s
     0     0  274.14656    0    5  265.77948  274.14656  3.15%     -    0s
     0     0  274.14656    0    5  265.77948  274.14656  3.15%     -    0s
     0     0  273.89707    0    5  265.77948  273.89707  3.05%     -    0s
     0     0  273.89707    0    5  265.77948  273.89707  3.05%     -    0s
     0     0  273.89707    0    5  265.77948  273.89707  3.05%     -    0s
     0     0  273.89707    0    5  265.77948  273.89707  3.05%     -    0s
     0     0  273.89707    0    5  265.77948  273.89707  3.05%     -    1s
     0     0  273.89707    0    5  265.77948  273.89707  3.05%     -    1s
     0     0  273.23978    0    5  265.77948  273.23978  2.81%     -    1s
     0     0  273.22214    0    6  265.77948  273.22214  2.80%     -    1s
     0     0  273.22214    0    6  265.77948  273.22214  2.80%     -    1s
     0     0  273.06819    0    5  265.77948  273.06819  2.74%     -    1s
     0     0  273.06819    0    6  265.77948  273.06819  2.74%     -    1s
     0     0  273.06819    0    6  265.77948  273.06819  2.74%     -    1s
     0     2  273.06819    0    6  265.77948  273.06819  2.74%     -    1s
*   10     2               5     267.4308526  272.73232  1.98%   388    2s
*   16     2               8     267.6797264  272.36218  1.75%   342    2s
*   18     2               9     268.1438910  271.95423  1.42%   320    2s

Cutting planes:
  MIR: 129
  Flow cover: 20
  RLT: 10
  Relax-and-lift: 2

Explored 37 nodes (12575 simplex iterations) in 3.51 seconds (2.13 work units)
Thread count was 20 (of 20 available processors)

Solution count 6: 268.144 267.68 267.431 ... 263.313

Optimal solution found (tolerance 1.00e-04)
Best objective 2.681438910155e+02, best bound 2.681438910155e+02, gap 0.0000%



#########node  1
V1.7
#########node  2
0.21768707482993196,0.782312925170068
#########node  3
1.0,0.0


Total Solving Time 3.907951831817627
obj value 268.14389101548306
Policy Regret train (Sum) 9.912030792665206
Best Treatment Found train (%) 57.599999999999994
treatment classification acc train (%) 72.8
Policy Regret test (Sum) 38.72832714295484
Best Treatment Found test (%) 81.04
treatment classification acc test (%) 74.56
